(set-info :status sat)
(declare-const symbol_71 (_ BitVec 32))
(declare-const symbol_27 (_ BitVec 32))
(declare-const symbol_42 (_ BitVec 32))
(declare-const symbol_54 (_ BitVec 32))
(declare-const symbol_45 (_ BitVec 32))
(declare-const symbol_49 (_ BitVec 32))
(declare-const symbol_77 (_ BitVec 32))
(declare-const symbol_60 (_ BitVec 32))
(declare-const symbol_84 (_ BitVec 32))
(declare-const symbol_75 (_ BitVec 32))
(declare-const symbol_29 (_ BitVec 32))
(declare-const symbol_23 (_ BitVec 32))
(declare-const symbol_0 (_ BitVec 32))
(declare-const symbol_9 (_ BitVec 32))
(declare-const symbol_36 (_ BitVec 32))
(declare-const symbol_64 (_ BitVec 32))
(declare-const symbol_47 (_ BitVec 32))
(declare-const symbol_52 (_ BitVec 32))
(declare-const symbol_16 (_ BitVec 32))
(declare-const symbol_34 (_ BitVec 32))
(declare-const symbol_11 (_ BitVec 32))
(declare-const symbol_3 (_ BitVec 32))
(declare-const symbol_14 (_ BitVec 32))
(declare-const symbol_38 (_ BitVec 32))
(declare-const symbol_24 (_ BitVec 32))
(declare-const symbol_57 (_ BitVec 32))
(declare-const symbol_1 (_ BitVec 32))
(declare-const symbol_72 (_ BitVec 32))
(declare-const symbol_67 (_ BitVec 32))
(declare-const symbol_79 (_ BitVec 32))
(declare-const symbol_62 (_ BitVec 32))
(declare-const symbol_18 (_ BitVec 32))
(declare-const symbol_40 (_ BitVec 32))
(declare-const symbol_21 (_ BitVec 32))
(declare-const symbol_43 (_ BitVec 32))
(declare-const symbol_86 (_ BitVec 32))
(declare-const symbol_31 (_ BitVec 32))
(declare-const symbol_20 (_ BitVec 32))
(declare-const symbol_7 (_ BitVec 32))
(declare-const symbol_69 (_ BitVec 32))
(declare-const symbol_12 (_ BitVec 32))
(declare-const symbol_81 (_ BitVec 32))
(declare-const symbol_5 (_ BitVec 32))
(declare-const symbol_87 (_ BitVec 32))
(assert (not (= symbol_87 (_ bv6 32))))
(assert (not (not (= symbol_86 (_ bv6 32)))))
(assert (not (not (= symbol_84 (_ bv6 32)))))
(assert (not (not (= symbol_81 (_ bv6 32)))))
(assert (not (not (= symbol_79 (_ bv6 32)))))
(assert (not (not (= symbol_77 (_ bv6 32)))))
(assert (not (not (= symbol_75 (_ bv6 32)))))
(assert (not (not (= symbol_72 (_ bv6 32)))))
(assert (not (not (= symbol_71 (_ bv6 32)))))
(assert (not (not (= symbol_69 (_ bv6 32)))))
(assert (not (not (= symbol_67 (_ bv6 32)))))
(assert (not (not (= symbol_64 (_ bv6 32)))))
(assert (not (not (= symbol_62 (_ bv6 32)))))
(assert (not (not (= symbol_60 (_ bv6 32)))))
(assert (not (not (= symbol_57 (_ bv6 32)))))
(assert (not (not (= symbol_54 (_ bv6 32)))))
(assert (not (not (= symbol_52 (_ bv6 32)))))
(assert (not (not (= symbol_49 (_ bv6 32)))))
(assert (not (not (= symbol_47 (_ bv6 32)))))
(assert (not (not (= symbol_45 (_ bv6 32)))))
(assert (not (not (= symbol_43 (_ bv6 32)))))
(assert (not (not (= symbol_42 (_ bv6 32)))))
(assert (not (not (= symbol_40 (_ bv6 32)))))
(assert (not (not (= symbol_38 (_ bv6 32)))))
(assert (not (not (= symbol_36 (_ bv6 32)))))
(assert (not (not (= symbol_34 (_ bv6 32)))))
(assert (not (not (= symbol_31 (_ bv6 32)))))
(assert (not (not (= symbol_29 (_ bv6 32)))))
(assert (not (not (= symbol_27 (_ bv6 32)))))
(assert (not (not (= symbol_24 (_ bv6 32)))))
(assert (not (not (= symbol_23 (_ bv6 32)))))
(assert (not (not (= symbol_21 (_ bv6 32)))))
(assert (not (not (= symbol_20 (_ bv6 32)))))
(assert (not (not (= symbol_18 (_ bv6 32)))))
(assert (not (not (= symbol_16 (_ bv6 32)))))
(assert (not (not (= symbol_14 (_ bv6 32)))))
(assert (not (not (= symbol_12 (_ bv6 32)))))
(assert (not (not (= symbol_11 (_ bv6 32)))))
(assert (not (not (= symbol_9 (_ bv6 32)))))
(assert (not (not (= symbol_7 (_ bv6 32)))))
(assert (not (not (= symbol_5 (_ bv6 32)))))
(assert (not (not (= symbol_3 (_ bv6 32)))))
(assert (not (not (= symbol_1 (_ bv6 32)))))
(assert (not (not (= symbol_0 (_ bv17 32)))))
(assert (not (= symbol_0 (_ bv6 32))))
(check-sat)